
  32    4
  10   10   10   10

   0   0   0   0   0   2 2 5 
   8   1   1   1   0   2 16 3 
   3   7   3   0   1   1 4 
   6   3   5   3   0   1 6 
   6   5   3   3   0   1 6 
   7   9   4   4   0   1 7 
   1   3   0   3   1   2 10 8 
   9   7   4   4   0   2 14 9 
   6   4   4   3   0   2 24 11 
   9   4   0   6   5   2 24 12 
   8   6   0   4   3   1 12 
   4   0   7   4   6   1 13 
   6   0   3   4   8   1 15 
   5   0   1   5   4   2 24 18 
   1   5   0   4   5   1 17 
   2   0   3   4   4   1 17 
  10   3   4   6   0   1 18 
   3   1   0   5   5   1 19 
   3   0   5   5   2   1 20 
   8   2   6   1   0   1 21 
   5   4   0   6   8   1 22 
   8   2   5   0   4   1 23 
  10   2   7   0   4   2 31 25 
   4   5   4   0   4   2 31 25 
   3   2   0   2   5   1 26 
   3   3   7   0   3   1 27 
   9   5   4   0   5   1 28 
   9   3   0   5   2   1 29 
   7   7   1   0   2   1 30 
   6   3   5   0   3   1 32
   2   4   2   6   0   1 32
   0   0   0   0   0   0 
